objective value:                                   -3
t_n_21                                              1 	(obj:-1)
t_n_1170                                            1 	(obj:-1)
t_n_1251                                            1 	(obj:-1)
